c Sudoku solution
p cnf 729 0
222 0
254 0
293 0
331 0
359 0
367 0
385 0
464 0
476 0
483 0
517 0
521 0
542 0
566 0
632 0
492 0
372 0
746 0
156 0
162 0
812 0
865 0
873 0
897 0
923 0
979 0
998 0
961 0
858 0
881 0
986 0
782 0
711 0
952 0
268 0
343 0
396 0
328 0
314 0
915 0
738 0
648 0
418 0
178 0
588 0
216 0
626 0
534 0
613 0
553 0
669 0
575 0
599 0
655 0
119 0
133 0
289 0
836 0
937 0
757 0
763 0
944 0
849 0
729 0
824 0
127 0
235 0
145 0
241 0
191 0
277 0
184 0
425 0
439 0
447 0
451 0
671 0
694 0
687 0
774 0
795 0
